50
6749

109 274
169 835
202 975
894 759
506 273
662 458
924 447
380 244
375 552
321 253
441 463
238 591
522 430
490 621
971 37
353 643
62 216
90 438
712 669
92 327
945 505
452 635
39 74
742 271
754 91
809 961
287 497
656 793
212 546
604 229
634 11
180 74
599 209
656 698
74 231
105 227
568 344
481 176
744 42
683 189
187 32
419 939
845 485
982 143
788 966
15 595
979 746
597 818
576 545
625 839
